(set-logic QF_S)
(set-option :produce-models true)

(declare-fun s3642 () String)
(declare-fun s138 () String)
(declare-fun s8698 () String)
(declare-fun s5476 () String)
(declare-fun s2780 () String)
(declare-fun s3215 () String)
(declare-fun s118 () String)
(declare-fun s4564 () String)
(declare-fun s12129 () String)
(declare-fun s10091 () String)
(declare-fun s10011 () String)
(declare-fun s5079 () String)
(declare-fun s12520 () String)
(declare-fun s7482 () String)
(declare-fun s13005 () String)
(declare-fun s813 () String)
(declare-fun s3235 () String)
(declare-fun s12417 () String)
(declare-fun s2402 () String)
(declare-fun s5774 () String)
(declare-fun s7571 () String)
(declare-fun s8130 () String)
(declare-fun s6169 () String)
(declare-fun s9495 () String)
(declare-fun s833 () String)
(declare-fun s7551 () String)
(declare-fun s3837 () String)
(declare-fun s5645 () String)
(declare-fun s1964 () String)
(declare-fun s6298 () String)
(declare-fun s10858 () String)
(declare-fun s3046 () String)
(declare-fun s12043 () String)
(declare-fun s7429 () String)
(declare-fun s7309 () String)
(declare-fun s7548 () String)
(declare-fun s12163 () String)
(declare-fun s12625 () String)
(declare-fun s5082 () String)
(declare-fun s3166 () String)
(declare-fun s3066 () String)
(declare-fun s12063 () String)
(declare-fun s1845 () String)
(declare-fun s8409 () String)
(declare-fun s12869 () String)
(declare-fun s2896 () String)
(declare-fun s1695 () String)
(declare-fun s5366 () String)
(declare-fun s3861 () String)
(declare-fun s7372 () String)
(declare-fun s7332 () String)
(declare-fun s10394 () String)
(declare-fun s12466 () String)
(declare-fun s1865 () String)
(declare-fun s3404 () String)
(declare-fun s9869 () String)
(declare-fun s1466 () String)
(declare-fun s12297 () String)
(declare-fun s7935 () String)
(declare-fun s9609 () String)
(declare-fun s8503 () String)
(declare-fun s921 () String)
(declare-fun s11953 () String)
(declare-fun s12320 () String)
(declare-fun s2006 () String)
(declare-fun s5596 () String)
(declare-fun s9668 () String)
(declare-fun s5420 () String)
(declare-fun s9991 () String)
(declare-fun s11933 () String)
(declare-fun s5386 () String)
(declare-fun s12560 () String)
(declare-fun s9688 () String)
(declare-fun s5118 () String)
(declare-fun s9922 () String)
(declare-fun s11811 () String)
(declare-fun s10952 () String)
(declare-fun s11864 () String)
(declare-fun s4618 () String)
(declare-fun s8088 () String)
(declare-fun s9734 () String)
(declare-fun s3472 () String)
(declare-fun s9731 () String)
(declare-fun s10148 () String)
(declare-fun s2990 () String)
(declare-fun s9754 () String)
(declare-fun s12300 () String)
(declare-fun s2285 () String)
(declare-fun s7718 () String)
(declare-fun s2123 () String)
(declare-fun s2950 () String)
(declare-fun s4516 () String)
(declare-fun s2529 () String)
(declare-fun s2081 () String)
(declare-fun s9555 () String)
(declare-fun s9665 () String)
(declare-fun s6042 () String)
(declare-fun s7698 () String)
(declare-fun s9866 () String)
(declare-fun s12363 () String)
(declare-fun s9515 () String)
(declare-fun s11930 () String)
(declare-fun s4536 () String)
(declare-fun s4685 () String)
(declare-fun s3112 () String)
(declare-fun s2830 () String)
(declare-fun s10285 () String)
(declare-fun s10042 () String)
(declare-fun s5300 () String)
(declare-fun s3132 () String)
(declare-fun s739 () String)
(declare-fun s5417 () String)
(declare-fun s5665 () String)
(declare-fun s7426 () String)
(declare-fun s2777 () String)
(declare-fun s10232 () String)
(declare-fun s11020 () String)
(declare-fun s2987 () String)
(declare-fun s1576 () String)
(declare-fun s3163 () String)
(declare-fun s5731 () String)
(declare-fun s1786 () String)
(declare-fun s12197 () String)
(declare-fun s7605 () String)
(declare-fun s12557 () String)
(declare-fun s10199 () String)
(declare-fun s7815 () String)
(declare-fun s8292 () String)
(declare-fun s12241 () String)
(declare-fun s810 () String)
(declare-fun s12420 () String)
(declare-fun s7864 () String)
(declare-fun s9988 () String)
(declare-fun s9822 () String)
(declare-fun s6417 () String)
(declare-fun s9612 () String)
(declare-fun s12040 () String)
(declare-fun s5711 () String)
(declare-fun s10654 () String)
(declare-fun s12106 () String)
(declare-fun s2217 () String)
(declare-fun s3212 () String)
(declare-fun s3506 () String)
(declare-fun s1031 () String)
(declare-fun s5562 () String)
(declare-fun s3109 () String)
(declare-fun s2360 () String)
(declare-fun s1067 () String)
(declare-fun s1752 () String)
(declare-fun s1629 () String)
(declare-fun s10352 () String)
(declare-fun s866 () String)
(declare-fun s12523 () String)
(declare-fun s10094 () String)
(declare-fun s3268 () String)
(declare-fun s7485 () String)
(declare-fun s4567 () String)
(declare-fun s3675 () String)
(declare-fun s5542 () String)
(declare-fun s9785 () String)
(declare-fun s1573 () String)
(declare-fun s7968 () String)
(declare-fun s3437 () String)
(declare-fun s10696 () String)
(declare-fun s8367 () String)
(declare-fun s2899 () String)
(declare-fun s5473 () String)
(declare-fun s9825 () String)
(declare-fun s5363 () String)
(declare-fun s10521 () String)
(declare-fun s8536 () String)
(declare-fun s12469 () String)
(declare-fun s10488 () String)
(declare-fun s2496 () String)
(declare-fun s2853 () String)
(declare-fun s4651 () String)
(declare-fun s2833 () String)
(declare-fun s5539 () String)
(declare-fun s9925 () String)
(declare-fun s10556 () String)
(declare-fun s7395 () String)
(declare-fun s6000 () String)
(declare-fun s11984 () String)
(declare-fun s5642 () String)
(declare-fun s7375 () String)
(declare-fun s1698 () String)
(declare-fun s12489 () String)
(declare-fun s12160 () String)
(declare-fun s7505 () String)
(declare-fun s6136 () String)
(declare-fun s3043 () String)
(declare-fun s12667 () String)
(declare-fun s12911 () String)
(declare-fun s5708 () String)
(declare-fun s3804 () String)
(declare-fun s7764 () String)
(declare-fun s1911 () String)
(declare-fun s1931 () String)
(declare-fun s5777 () String)
(declare-fun s12761 () String)
(declare-fun s760 () String)
(declare-fun s10114 () String)
(declare-fun s7784 () String)
(declare-fun s667 () String)
(declare-fun s5797 () String)
(declare-fun s11887 () String)
(declare-fun s10985 () String)
(declare-fun s10145 () String)
(declare-fun s11867 () String)
(declare-fun s2953 () String)
(declare-fun s7867 () String)
(declare-fun s1542 () String)
(declare-fun s7887 () String)
(declare-fun s12386 () String)
(declare-fun s8571 () String)
(declare-fun s6204 () String)
(declare-fun s10823 () String)
(declare-fun s7695 () String)
(declare-fun s12366 () String)
(declare-fun s1522 () String)
(declare-fun s2919 () String)
(declare-fun s7602 () String)
(declare-fun s7761 () String)
(declare-fun s8257 () String)
(declare-fun s10790 () String)
(declare-fun s7312 () String)
(declare-fun s7642 () String)
(declare-fun s1789 () String)
(declare-fun s3710 () String)
(declare-fun s1469 () String)
(declare-fun s3548 () String)
(declare-fun s10631 () String)
(declare-fun s5593 () String)
(declare-fun s9945 () String)
(declare-fun s5845 () String)
(declare-fun s3310 () String)
(declare-fun s7639 () String)
(declare-fun s12244 () String)
(declare-fun s5303 () String)
(declare-fun s2250 () String)
(declare-fun s1519 () String)
(declare-fun s5323 () String)
(declare-fun s8021 () String)
(declare-fun s1652 () String)
(declare-fun s11987 () String)
(declare-fun s7818 () String)
(declare-fun s12200 () String)
(declare-fun s1749 () String)
(declare-fun s8224 () String)
(declare-fun s9492 () String)
(declare-fun s6511 () String)
(declare-fun s1632 () String)
(declare-fun s1842 () String)
(declare-fun s736 () String)
(declare-fun s10045 () String)
(declare-fun s12611 () String)
(declare-fun s670 () String)
(declare-fun s1908 () String)
(declare-fun s5496 () String)
(declare-fun s9558 () String)
(declare-fun s5878 () String)
(declare-fun s4513 () String)
(declare-fun s12109 () String)
(declare-fun s11814 () String)
(declare-fun s1718 () String)
(declare-fun s5931 () String)
(declare-fun s9788 () String)
(declare-fun s9578 () String)

(assert (not (= s6204 s138 )))
(assert (not (= s3548 s118 )))
(assert (= s10045 s10042 ))
(assert (not (= s8021 s118 )))
(assert (not (= s2496 s118 )))
(assert (= s4567 s4564 ))
(assert (= s5711 s5708 ))
(assert (not (= s138 s7935 )))
(assert (not (= s10285 s118 )))
(assert (not (= s138 s5386 )))
(assert (not (= s118 s4567 )))
(assert (= s3166 s3163 ))
(assert (= s12523 s12520 ))
(assert (not (= s8257 s118 )))
(assert (= s1522 s1519 ))
(assert (= s118 s9612 ))
(assert (= s11867 s11864 ))
(assert (not (= s118 s7867 )))
(assert (= s118 s12200 ))
(assert (not (= s2285 s118 )))
(assert (= s9612 s9609 ))
(assert (not (= s138 s12489 )))
(assert (not (= s1031 s118 )))
(assert (= s118 s11987 ))
(assert (not (= s2402 s118 )))
(assert (not (= s138 s7505 )))
(assert (not (= s138 s9688 )))
(assert (not (= s10488 s118 )))
(assert (= s9825 s9822 ))
(assert (not (= s118 s3046 )))
(assert (not (= s118 s4516 )))
(assert (not (= s118 s5542 )))
(assert (= s5542 s5539 ))
(assert (not (= s118 s11867 )))
(assert (= s5366 s5363 ))
(assert (= s1632 s1629 ))
(assert (not (= s6298 s138 )))
(assert (= s10488 s138 ))
(assert (= s813 s810 ))
(assert (not (= s7968 s138 )))
(assert (not (= s8021 s138 )))
(assert (not (= s118 s5476 )))
(assert (not (= s118 s10148 )))
(assert (not (= s10790 s118 )))
(assert (= s9869 s9866 ))
(assert (= s5645 s5642 ))
(assert (not (= s10985 s118 )))
(assert (not (= s3804 s118 )))
(assert (not (= s6298 s118 )))
(assert (not (= s2285 s138 )))
(assert (not (= s118 s12109 )))
(assert (= s10352 s118 ))
(assert (= s1911 s1908 ))
(assert (not (= s5118 s118 )))
(assert (not (= s4651 s118 )))
(assert (= s118 s9869 ))
(assert (not (= s118 s12523 )))
(assert (not (= s8571 s118 )))
(assert (= s12244 s12241 ))
(assert (not (= s2250 s118 )))
(assert (not (= s10952 s118 )))
(assert (= s10952 s138 ))
(assert (= s4516 s4513 ))
(assert (not (= s2006 s138 )))
(assert (= s118 "(" ))
(assert (= s5476 s5473 ))
(assert (not (= s118 s11933 )))
(assert (not (= s10556 s138 )))
(assert (not (= s138 s11887 )))
(assert (not (= s3837 s118 )))
(assert (not (= s6511 s138 )))
(assert (not (= s118 s7312 )))
(assert (not (= s118 s12420 )))
(assert (= s9558 s9555 ))
(assert (not (= s6042 s138 )))
(assert (not (= s138 s2853 )))
(assert (= s1964 s118 ))
(assert (not (= s8224 s118 )))
(assert (not (= s118 s1522 )))
(assert (= s10790 s138 ))
(assert (= s6000 s118 ))
(assert (= s118 s11814 ))
(assert (= s12200 s12197 ))
(assert (not (= s138 s7718 )))
(assert (not (= s10232 s138 )))
(assert (not (= s2006 s118 )))
(assert (not (= s12667 s138 )))
(assert (not (= s1067 s118 )))
(assert (= s2953 s2950 ))
(assert (not (= s8571 s138 )))
(assert (not (= s3404 s118 )))
(assert (not (= s8130 s138 )))
(assert (not (= s138 s7784 )))
(assert (= s9668 s9665 ))
(assert (not (= s118 s9558 )))
(assert (not (= s138 s10114 )))
(assert (not (= s8536 s118 )))
(assert (not (= s118 s7698 )))
(assert (not (= s5878 s118 )))
(assert (= s7764 s7761 ))
(assert (not (= s118 s12366 )))
(assert (not (= s138 s1865 )))
(assert (not (= s118 s9495 )))
(assert (not (= s2123 s118 )))
(assert (not (= s12911 s118 )))
(assert (= s2990 s2987 ))
(assert (not (= s138 s3235 )))
(assert (not (= s13005 s138 )))
(assert (not (= s8409 s118 )))
(assert (not (= s5878 s138 )))
(assert (= s9495 s9492 ))
(assert (= s10094 s10091 ))
(assert (not (= s118 s12043 )))
(assert (= s2899 s2896 ))
(assert (= s9925 s9922 ))
(assert (not (= s138 s7332 )))
(assert (= s2833 s2830 ))
(assert (not (= s6511 s118 )))
(assert (= s11933 s11930 ))
(assert (not (= s6417 s138 )))
(assert (not (= s118 s5777 )))
(assert (= s3804 s138 ))
(assert (not (= s12761 s118 )))
(assert (not (= s138 s7571 )))
(assert (not (= s118 s5082 )))
(assert (not (= s138 s5731 )))
(assert (= s1469 s1466 ))
(assert (not (= s118 s5366 )))
(assert (= s6136 s138 ))
(assert (not (= s118 s7375 )))
(assert (not (= s3310 s138 )))
(assert (= s3506 s118 ))
(assert (= s12043 s12040 ))
(assert (not (= s6136 s118 )))
(assert (= s12420 s12417 ))
(assert (= s2081 s118 ))
(assert (not (= s118 s10045 )))
(assert (= s5420 s5417 ))
(assert (= s1845 s1842 ))
(assert (not (= s3548 s138 )))
(assert (not (= s3642 s118 )))
(assert (not (= s138 s9754 )))
(assert (not (= s118 s3112 )))
(assert (= s7485 s7482 ))
(assert (= s118 s1469 ))
(assert (not (= s138 s5323 )))
(assert (= s12560 s12557 ))
(assert (= s10148 s10145 ))
(assert (not (= s118 s2899 )))
(assert (not (= s10285 s138 )))
(assert (not (= s138 s3066 )))
(assert (not (= s11020 s138 )))
(assert (not (= s4685 s118 )))
(assert (not (= s3710 s138 )))
(assert (= s8367 s118 ))
(assert (= s8224 s138 ))
(assert (not (= s118 s1632 )))
(assert (not (= s118 s3166 )))
(assert (= s118 s7642 ))
(assert (not (= s118 s5645 )))
(assert (= s7429 s7426 ))
(assert (not (= s138 s9515 )))
(assert (= s9788 s9785 ))
(assert (not (= s138 s5562 )))
(assert (not (= s118 s10094 )))
(assert (= s2217 s138 ))
(assert (not (= s4651 s138 )))
(assert (not (= s138 s10199 )))
(assert (not (= s10858 s118 )))
(assert (not (= s5931 s118 )))
(assert (= s5596 s5593 ))
(assert (= s9991 s9988 ))
(assert (= s12469 s12466 ))
(assert (not (= s8292 s138 )))
(assert (not (= s118 s5303 )))
(assert (not (= s8698 s118 )))
(assert (= s3112 s3109 ))
(assert (= s1576 s1573 ))
(assert (not (= s3861 s118 )))
(assert (not (= s138 s3132 )))
(assert (not (= s118 s813 )))
(assert (= s670 s667 ))
(assert (not (= s138 s2919 )))
(assert (not (= s138 s9945 )))
(assert (= s866 s118 ))
(assert (= s12300 s12297 ))
(assert (not (= s118 s1911 )))
(assert (not (= s118 s9788 )))
(assert (= s12869 s118 ))
(assert (= s2496 s138 ))
(assert (not (= s118 s7605 )))
(assert (= s3046 s3043 ))
(assert (not (= s921 s118 )))
(assert (not (= s138 s12611 )))
(assert (not (= s921 s138 )))
(assert (= s12625 s118 ))
(assert (not (= s12911 s138 )))
(assert (= s2780 s2777 ))
(assert (= s118 s1789 ))
(assert (= s118 s2990 ))
(assert (= s3215 s3212 ))
(assert (= s3268 s118 ))
(assert (not (= s10696 s138 )))
(assert (not (= s3675 s118 )))
(assert (not (= s138 s1542 )))
(assert (= s7375 s7372 ))
(assert (not (= s2123 s138 )))
(assert (not (= s8698 s138 )))
(assert (not (= s138 s12320 )))
(assert (= s7698 s7695 ))
(assert (not (= s3472 s138 )))
(assert (= s5777 s5774 ))
(assert (= s118 s12244 ))
(assert (not (= s118 s1845 )))
(assert (not (= s138 s7887 )))
(assert (not (= s10394 s118 )))
(assert (not (= s12761 s138 )))
(assert (not (= s8130 s118 )))
(assert (not (= s118 s9668 )))
(assert (not (= s10858 s138 )))
(assert (not (= s2529 s118 )))
(assert (not (= s118 s7818 )))
(assert (not (= s138 s5845 )))
(assert (not (= s3710 s118 )))
(assert (not (= s118 s2953 )))
(assert (= s1698 s1695 ))
(assert (= s1789 s1786 ))
(assert (not (= s118 s739 )))
(assert (= s12163 s12160 ))
(assert (= s3642 s138 ))
(assert (not (= s118 s7551 )))
(assert (= s138 ")" ))
(assert (= s1752 s1749 ))
(assert (= s10631 s118 ))
(assert (not (= s138 s4536 )))
(assert (not (= s8409 s138 )))
(assert (= s118 s5420 ))
(assert (= s8088 s118 ))
(assert (not (= s118 s1752 )))
(assert (not (= s118 s7485 )))
(assert (not (= s118 s1698 )))
(assert (= s5303 s5300 ))
(assert (= s118 s670 ))
(assert (= s2360 s118 ))
(assert (not (= s118 s9734 )))
(assert (not (= s138 s1652 )))
(assert (not (= s138 s11953 )))
(assert (= s118 s7429 ))
(assert (= s12109 s12106 ))
(assert (not (= s138 s833 )))
(assert (not (= s4685 s138 )))
(assert (not (= s2217 s118 )))
(assert (= s118 s1576 ))
(assert (= s7818 s7815 ))
(assert (not (= s138 s4618 )))
(assert (not (= s118 s2833 )))
(assert (not (= s118 s12163 )))
(assert (not (= s10696 s118 )))
(assert (= s7312 s7309 ))
(assert (not (= s3437 s118 )))
(assert (not (= s138 s9578 )))
(assert (not (= s3310 s118 )))
(assert (= s9734 s9731 ))
(assert (not (= s138 s7395 )))
(assert (= s8503 s138 ))
(assert (= s1031 s138 ))
(assert (not (= s138 s12386 )))
(assert (= s5118 s138 ))
(assert (= s12366 s12363 ))
(assert (not (= s10394 s138 )))
(assert (not (= s11020 s118 )))
(assert (not (= s138 s12129 )))
(assert (not (= s118 s12300 )))
(assert (= s7605 s7602 ))
(assert (not (= s138 s760 )))
(assert (not (= s6042 s118 )))
(assert (not (= s138 s10011 )))
(assert (= s11987 s11984 ))
(assert (not (= s10823 s118 )))
(assert (not (= s13005 s118 )))
(assert (not (= s118 s9925 )))
(assert (not (= s118 s7764 )))
(assert (not (= s8292 s118 )))
(assert (not (= s118 s5596 )))
(assert (= s11814 s11811 ))
(assert (not (= s138 s5496 )))
(assert (= s7551 s7548 ))
(assert (= s7642 s7639 ))
(assert (= s5082 s5079 ))
(assert (not (= s138 s1931 )))
(assert (not (= s138 s5797 )))
(assert (not (= s118 s12469 )))
(assert (not (= s138 s5665 )))
(assert (not (= s5931 s138 )))
(assert (= s7867 s7864 ))
(assert (not (= s10232 s118 )))
(assert (not (= s6204 s118 )))
(assert (not (= s12667 s118 )))
(assert (= s3404 s138 ))
(assert (= s10654 s118 ))
(assert (not (= s118 s5711 )))
(assert (= s739 s736 ))
(assert (not (= s6417 s118 )))
(assert (not (= s118 s9991 )))
(assert (not (= s3472 s118 )))
(assert (not (= s7968 s118 )))
(assert (= s118 s2780 ))
(assert (not (= s8503 s118 )))
(assert (not (= s118 s3215 )))
(assert (not (= s118 s12560 )))
(assert (= s118 s9825 ))
(assert (not (= s10521 s118 )))
(assert (not (= s2402 s138 )))
(assert (not (= s6169 s118 )))
(assert (not (= s10556 s118 )))
(assert (not (= s138 s1718 )))
(assert (not (= s138 s12063 )))


(check-sat)
(get-model)
